<instance format="XCSP3" type="COP">
  <variables>
    <array id="t" note="t[i] is the starting time of the ith operation" size="[48]"> 0..100 </array>
    <array id="r" note="r[i] is the (index of the) operator used for the ith operation" size="[48]">
      <domain for="r[0..15] r[32..47]"> 1 2 </domain>
      <domain for="r[16..31]"> 1..3 </domain>
    </array>
  </variables>
  <constraints>
    <group note="respecting dependencies">
      <intension> le(add(%0,%1),%2) </intension>
      <args> t[0] 1 t[8] </args>
      <args> t[0] 1 t[16] </args>
      <args> t[0] 1 t[17] </args>
      <args> t[1] 1 t[8] </args>
      <args> t[1] 1 t[19] </args>
      <args> t[1] 1 t[20] </args>
      <args> t[2] 1 t[9] </args>
      <args> t[2] 1 t[22] </args>
      <args> t[2] 1 t[23] </args>
      <args> t[3] 1 t[9] </args>
      <args> t[3] 1 t[25] </args>
      <args> t[3] 1 t[26] </args>
      <args> t[4] 1 t[10] </args>
      <args> t[4] 1 t[11] </args>
      <args> t[5] 1 t[10] </args>
      <args> t[5] 1 t[11] </args>
      <args> t[6] 1 t[12] </args>
      <args> t[6] 1 t[13] </args>
      <args> t[7] 1 t[12] </args>
      <args> t[7] 1 t[13] </args>
      <args> t[8] 1 t[14] </args>
      <args> t[8] 1 t[18] </args>
      <args> t[9] 1 t[14] </args>
      <args> t[9] 1 t[24] </args>
      <args> t[10] 1 t[27] </args>
      <args> t[11] 1 t[15] </args>
      <args> t[11] 1 t[29] </args>
      <args> t[12] 1 t[28] </args>
      <args> t[13] 1 t[15] </args>
      <args> t[13] 1 t[31] </args>
      <args> t[14] 1 t[21] </args>
      <args> t[15] 1 t[30] </args>
      <args> t[16] 2 t[32] </args>
      <args> t[17] 2 t[38] </args>
      <args> t[18] 2 t[32] </args>
      <args> t[18] 2 t[34] </args>
      <args> t[19] 2 t[34] </args>
      <args> t[20] 2 t[36] </args>
      <args> t[21] 2 t[33] </args>
      <args> t[21] 2 t[35] </args>
      <args> t[21] 2 t[36] </args>
      <args> t[21] 2 t[38] </args>
      <args> t[22] 2 t[35] </args>
      <args> t[23] 2 t[37] </args>
      <args> t[24] 2 t[37] </args>
      <args> t[24] 2 t[39] </args>
      <args> t[25] 2 t[33] </args>
      <args> t[26] 2 t[39] </args>
      <args> t[27] 2 t[44] </args>
      <args> t[27] 2 t[45] </args>
      <args> t[28] 2 t[44] </args>
      <args> t[28] 2 t[45] </args>
      <args> t[29] 2 t[46] </args>
      <args> t[30] 2 t[46] </args>
      <args> t[30] 2 t[47] </args>
      <args> t[31] 2 t[47] </args>
      <args> t[32] 1 t[40] </args>
      <args> t[33] 1 t[40] </args>
      <args> t[34] 1 t[41] </args>
      <args> t[35] 1 t[41] </args>
      <args> t[36] 1 t[42] </args>
      <args> t[37] 1 t[42] </args>
      <args> t[38] 1 t[43] </args>
      <args> t[39] 1 t[43] </args>
    </group>
    <noOverlap note="no overlap concerning add operations">
      <origins> (t[0],r[0])(t[1],r[1])(t[2],r[2])(t[3],r[3])(t[4],r[4])(t[5],r[5])(t[6],r[6])(t[7],r[7])(t[8],r[8])(t[9],r[9])(t[10],r[10])(t[11],r[11])(t[12],r[12])(t[13],r[13])(t[14],r[14])(t[15],r[15])(t[32],r[32])(t[33],r[33])(t[34],r[34])(t[35],r[35])(t[36],r[36])(t[37],r[37])(t[38],r[38])(t[39],r[39])(t[40],r[40])(t[41],r[41])(t[42],r[42])(t[43],r[43])(t[44],r[44])(t[45],r[45])(t[46],r[46])(t[47],r[47]) </origins>
      <lengths> (1,1)(1,1)(1,1)(1,1)(1,1)(1,1)(1,1)(1,1)(1,1)(1,1)(1,1)(1,1)(1,1)(1,1)(1,1)(1,1)(1,1)(1,1)(1,1)(1,1)(1,1)(1,1)(1,1)(1,1)(1,1)(1,1)(1,1)(1,1)(1,1)(1,1)(1,1)(1,1) </lengths>
    </noOverlap>
    <noOverlap note="no overlap concerning mul operations">
      <origins> (t[16],r[16])(t[17],r[17])(t[18],r[18])(t[19],r[19])(t[20],r[20])(t[21],r[21])(t[22],r[22])(t[23],r[23])(t[24],r[24])(t[25],r[25])(t[26],r[26])(t[27],r[27])(t[28],r[28])(t[29],r[29])(t[30],r[30])(t[31],r[31]) </origins>
      <lengths> (2,1)(2,1)(2,1)(2,1)(2,1)(2,1)(2,1)(2,1)(2,1)(2,1)(2,1)(2,1)(2,1)(2,1)(2,1)(2,1) </lengths>
    </noOverlap>
  </constraints>
  <objectives>
    <minimize note="minimizing the ending time of last operations" type="maximum"> add(t[40],1) add(t[41],1) add(t[42],1) add(t[43],1) add(t[44],1) add(t[45],1) add(t[46],1) add(t[47],1) </minimize>
  </objectives>
</instance>
